nodes = 16;
edges = 38;
starts = [1, 1, 2, 3, 3, 4, 5, 6, 7, 7, 8, 9, 9, 10, 11, 12, 13, 14, 15, 2, 6, 3, 4, 8, 5, 10, 7, 8, 12, 9, 10, 14, 11, 16, 13, 14, 15, 16];
ends = [2, 6, 3, 4, 8, 5, 10, 7, 8, 12, 9, 10, 14, 11, 16, 13, 14, 15, 16, 1, 1, 2, 3, 3, 4, 5, 6, 7, 7, 8, 9, 9, 10, 11, 12, 13, 14, 15];
weights = [5, 12, 13, 15, 1, 1, 10, 18, 15, 2, 4, 6, 3, 14, 12, 8, 12, 2, 15, 5, 12, 13, 15, 1, 1, 10, 18, 15, 2, 4, 6, 3, 14, 12, 8, 12, 2, 15];
start = 1;
end= 16;
tasks = 1;
task = array2d(1..tasks, 1..nodes, [0, 0, 0, 1, 0, 0, 0, 0, 0, 0, 0, 0, 0, 0, 0, 0]);
